db/data/14390516230348316031994568012458131278.z3.out
-------------------
2500.129927071
